treewidth/data/FolkmanGraph.gr
p tw 20 40
1 2
1 16
1 8
1 12
2 13
2 7
2 9
13 14
13 20
13 8
14 15
14 19
14 3
15 16
15 20
15 12
16 17
16 11
17 18
17 6
17 12
18 19
18 5
18 7
19 20
19 6
20 3
3 4
3 10
4 5
4 9
4 11
5 6
5 10
6 7
7 8
8 9
9 10
10 11
11 12
