treewidth/data/FolkmanGraph.td
c width = 6, time = 0.074750
s td 10 7 20
b 1 1 5 7 11 14 17 20
b 2 1 5 7 9 11 14 20
b 3 1 7 8 9 13 14 20
b 4 1 2 7 9 13
b 5 4 5 9 10 11 14 20
b 6 3 4 10 14 20
b 7 5 7 14 17 18 19 20
b 8 5 6 7 17 19
b 9 1 11 14 15 16 17 20
b 10 1 11 12 15 17
3 4
2 3
5 6
2 5
1 2
7 8
1 7
9 10
1 9
